NAME          ClpDefau
ROWS
 N  OBJROW
 L  R_72_0
 L  R_72_1
 L  R_72_2
 L  R_72_3
 L  R_72_4
 L  R_72_5
 L  R_72_6
 L  R_72_7
COLUMNS
    x_0       OBJROW     -1.           R_72_1    88.         
    x_0       R_72_2    56.         
    x_1       OBJROW     -2.        
    x_2       OBJROW     -2.           R_72_1    23.         
    x_2       R_72_3    42.            R_72_4    66.         
    x_3       OBJROW     -6.           R_72_0    58.         
    x_4       OBJROW     -3.           R_72_1    97.         
    x_5       OBJROW     -5.        
    x_6       OBJROW     -5.        
    x_7       OBJROW     -10.       
RHS
    RHS       R_72_0    46.            R_72_1    82.         
    RHS       R_72_2    85.            R_72_3    66.         
    RHS       R_72_4    99.            R_72_5    29.         
    RHS       R_72_6    63.            R_72_7    21.         
BOUNDS
 UI BOUND     x_0       10.         
 UI BOUND     x_1       10.         
 UI BOUND     x_2       10.         
 UI BOUND     x_3       10.         
 UI BOUND     x_4       10.         
 UI BOUND     x_5       10.         
 UI BOUND     x_6       10.         
 UI BOUND     x_7       10.         
ENDATA
